119 48 011 1
1
506 113 1
430 114 1
363 115 1
304 116 1
467 117 1
362 118 1
321 119 1
443 108 1
370 109 1
455 110 1
400 111 1
454 112 1
342 113 1
502 114 1
411 115 1
429 116 1
458 117 1
272 118 1
352 119 1
278 108 1
355 109 1
429 110 1
350 111 1
338 112 1
451 113 1
336 114 1
342 115 1
415 116 1
475 117 1
461 118 1
461 119 1
519 108 1
483 109 1
531 110 1
319 111 1
313 112 1
339 113 1
306 114 1
407 115 1
307 116 1
401 117 1
442 118 1
418 119 1
360 108 1
598 109 1
397 110 1
418 111 1
421 112 1
1
1
1
1
1
1
1
1
1
1
1
1
1
1
1
1
1
1
1
1
1
1
1
1
1
1
1
1
1
1
1
1
1
1
1
1
1
1
1
1
1
1
1
1
1
1
1
1
1
1
1
1
1
1
1
1
1
1
1 9 442 21 277 33 518 45 359
1 10 369 22 354 34 482 46 597
1 11 454 23 428 35 530 47 396
1 12 399 24 349 36 318 48 417
1 13 453 25 337 37 312 49 420
1 2 505 14 341 26 450 38 338
1 3 429 15 501 27 335 39 305
1 4 362 16 410 28 341 40 406
1 5 303 17 428 29 414 41 306
1 6 466 18 457 30 474 42 400
1 7 361 19 271 31 460 43 441
1 8 320 20 351 32 460 44 417
